proyfinal/src/viki/013/andrea/andrea-localstore/experimentInOfficeAgust.take6/worker_3/62b9b290-fdaf-4505-bf7f-aa9437eb616d.als.cnf.out
Reading from standard input... Use '--help' for help.
============================[ Problem Statistics ]=============================
|                                                                             |
|  Number of variables:         87638                                         |
|  Number of clauses:          161767                                         |
|  Parse time:                   0.03 s                                       |
|                                                                             |
============================[ Search Statistics ]==============================
| Conflicts |          ORIGINAL         |          LEARNT          | Progress |
|           |    Vars  Clauses Literals |    Limit  Clauses Lit/Cl |          |
===============================================================================
|       100 |   66487   120265   299279 |    44097      100     19 | 24.135 % |
|       250 |   63336   120260   299267 |    48506      247     35 | 27.730 % |
|       475 |   63336   109418   272309 |    53357      471     33 | 27.730 % |
|       812 |   63334   109405   272274 |    58693      806     33 | 27.732 % |
|      1318 |   63262   109141   271574 |    64562     1261     32 | 27.814 % |
|      2077 |   63261   109097   271484 |    71018     2018     38 | 27.816 % |
|      3216 |   63217   108929   271090 |    78120     3155     50 | 27.866 % |
|      4924 |   63128   108554   270212 |    85932     4857     67 | 27.967 % |
|      7486 |   63070   108338   269686 |    94526     7416     72 | 28.034 % |
|     11330 |   62997   107988   268896 |   103978    11249     70 | 28.117 % |
|     17096 |   62742   107084   266773 |   114376    16955     75 | 28.408 % |
===============================================================================
restarts              : 67
conflicts             : 19684          (7446 /sec)
decisions             : 97251          (0.00 % random) (36788 /sec)
propagations          : 32293495       (12215981 /sec)
conflict literals     : 1511887        (39.68 % deleted)
Memory used           : 42.11 MB
CPU time              : 2.64355 s

INDETERMINATE
